NAME : B-n10-k3
CAPACITY : 586   
NODE_COORD_SECTION
1   302   95      
2   485   404     
3   310   246
4   86   314
5   290   384
6   195   485
7   68   445
8   65   498
9   466   220
10   409   72
DEMAND_SECTION
1   0
2   30
3   90
4   14
5   35
6   71
7   5
8   99
9   98
10   14
DEPOT_SECTION
    1
    -1
EOF